50
120
100
99
99
99
97
95
95
94
93
92
92
88
86
86
86
84
79
78
78
77
76
69
68
65
61
60
58
57
57
55
54
54
53
53
52
52
51
48
47
43
43
40
39
38
36
34
33
28
27
25
